
******************************************************************************
This program contains Ipopt, a library for large-scale nonlinear optimization.
 Ipopt is released as open source code under the Eclipse Public License (EPL).
         For more information visit http://projects.coin-or.org/Ipopt

This version of Ipopt was compiled from source code available at
    https://github.com/IDAES/Ipopt as part of the Institute for the Design of
    Advanced Energy Systems Process Systems Engineering Framework (IDAES PSE
    Framework) Copyright (c) 2018-2019. See https://github.com/IDAES/idaes-pse.

This version of Ipopt was compiled using HSL, a collection of Fortran codes
    for large-scale scientific computation.  All technical papers, sales and
    publicity material resulting from use of the HSL codes within IPOPT must
    contain the following acknowledgement:
        HSL, a collection of Fortran codes for large-scale scientific
        computation. See http://www.hsl.rl.ac.uk.
******************************************************************************

This is Ipopt version 3.13.2, running with linear solver ma27.

Number of nonzeros in equality constraint Jacobian...:      958
Number of nonzeros in inequality constraint Jacobian.:        0
Number of nonzeros in Lagrangian Hessian.............:      832

Total number of variables............................:      416
                     variables with only lower bounds:      128
                variables with lower and upper bounds:      224
                     variables with only upper bounds:        0
Total number of equality constraints.................:      415
Total number of inequality constraints...............:        0
        inequality constraints with only lower bounds:        0
   inequality constraints with lower and upper bounds:        0
        inequality constraints with only upper bounds:        0

iter    objective    inf_pr   inf_du lg(mu)  ||d||  lg(rg) alpha_du alpha_pr  ls
   0  0.0000000e+00 5.32e-01 1.78e-15  -1.0 0.00e+00    -  0.00e+00 0.00e+00   0
   1  1.2936823e-01 4.40e-01 2.99e+02  -1.0 1.89e+05    -  7.12e-01 1.34e-01h  1
   2  1.3548689e-01 4.39e-01 1.12e+03  -1.0 1.87e+05    -  7.73e-01 3.78e-03h  1
   3  1.7895096e+01 3.92e-02 4.36e+04  -1.0 2.48e+05    -  7.64e-01 9.90e-01h  1
   4  2.3787667e+01 1.18e-03 1.75e+03  -1.0 4.34e+04    -  9.53e-01 9.90e-01h  1
   5  2.3978304e+01 1.27e-05 2.82e+01  -1.0 1.42e+03    -  9.90e-01 9.90e-01h  1
   6  2.4045750e+01 1.04e-06 4.56e+01  -1.0 7.83e+02    -  9.90e-01 9.90e-01h  1
   7  2.3978284e+01 1.20e-06 2.73e+06  -2.5 8.58e+02    -  9.97e-01 9.14e-01h  1
   8  2.3980959e+01 5.59e-09 1.08e+06  -2.5 3.13e+01    -  1.00e+00 9.97e-01h  1
   9  2.3980955e+01 1.60e-11 3.80e+08  -2.5 4.81e-02    -  1.00e+00 9.97e-01h  1
In iteration 9, 32 Slacks too small, adjusting variable bounds
iter    objective    inf_pr   inf_du lg(mu)  ||d||  lg(rg) alpha_du alpha_pr  ls
  10  2.3980955e+01 1.16e-12 1.35e+11  -2.5 1.36e-04    -  1.00e+00 9.97e-01h  1
  11  2.3980955e+01 7.71e-13 3.66e-03  -2.5 3.86e-07    -  1.00e+00 1.00e+00h  1
  12  2.3980952e+01 7.76e-13 1.35e+11  -9.0 3.32e+01    -  1.00e+00 9.73e-04f 11
  13  2.3980930e+01 7.19e-13 1.34e+11  -9.0 3.30e+01    -  1.00e+00 7.81e-03f  8
  14  2.3980908e+01 4.36e-13 1.33e+11  -9.0 3.27e+01    -  1.00e+00 7.81e-03f  8
  15  2.3980908e+01 7.51e-13 1.33e+11  -9.0 3.25e+01    -  1.00e+00 1.82e-12h 40
  16  2.3980908e+01 5.88e-13 1.33e+11  -9.0 3.25e+01    -  1.00e+00 2.98e-08h 26
  17  2.3978115e+01 1.92e-09 2.32e-04  -9.0 3.25e+01    -  1.00e+00 1.00e+00f  1
  18  2.3978115e+01 1.32e-12 7.28e-12  -9.0 6.87e-04    -  1.00e+00 1.00e+00h  1

Number of Iterations....: 18

                                   (scaled)                 (unscaled)
Objective...............:   2.3978115390553640e+01    2.3978115390553640e+01
Dual infeasibility......:   7.2759576141834259e-12    7.2759576141834259e-12
Constraint violation....:   1.3224976669334865e-12    1.3224976669334865e-12
Complementarity.........:   9.0909146680581750e-10    9.0909146680581750e-10
Overall NLP error.......:   3.7729107859686882e-11    9.0909146680581750e-10


Number of objective function evaluations             = 122
Number of objective gradient evaluations             = 19
Number of equality constraint evaluations            = 122
Number of inequality constraint evaluations          = 0
Number of equality constraint Jacobian evaluations   = 19
Number of inequality constraint Jacobian evaluations = 0
Number of Lagrangian Hessian evaluations             = 18
Total CPU secs in IPOPT (w/o function evaluations)   =      0.045
Total CPU secs in NLP function evaluations           =      1.051

EXIT: Optimal Solution Found.
